# Solution for model STEIN45
# Objective value = 30
0001 1
0002 1
0003 1
0004 0
0005 1
0006 1
0007 1
0008 0
0009 0
0010 1
0011 1
0012 1
0013 1
0014 1
0015 1
0016 1
0017 0
0018 1
0019 0
0020 1
0021 1
0022 1
0023 1
0024 0
0025 0
0026 0
0027 1
0028 1
0029 0
0030 1
0031 1
0032 1
0033 0
0034 1
0035 0
0036 0
0037 0
0038 1
0039 1
0040 1
0041 1
0042 1
0043 0
0044 1
0045 0
